NAME : swiss42-R-3-1-c.1525.tour
COMMENT : Length = 1525
COMMENT : Found by LKH-3 [Keld Helsgaun] Tue Jul 30 13:14:22 2024
TYPE : TOUR
DIMENSION : 42
TOUR_SECTION
1
2
5
7
15
17
16
38
32
21
34
35
39
23
31
30
9
24
41
25
22
40
10
42
11
26
12
13
19
27
6
14
20
8
18
37
36
33
29
3
28
4
-1
EOF
